16
6 9
6 5
6 1
6 3
6 15
6 11
6 0
9 15
9 14
9 3
9 1
9 13
9 12
8 13
8 4
8 10
8 15
8 11
8 1
8 3
13 5
13 2
13 10
13 7
13 0
10 11
10 15
10 3
10 12
10 4
11 14
11 7
11 1
11 12
4 5
4 14
4 1
4 3
4 2
7 12
7 0
7 3
7 5
7 1
12 2
12 0
12 1
5 2
5 15
5 14
0 14
0 2
0 15
14 3
14 2
2 15
